StudentsNr = 10;
InstructorsNr = 53;
DaysNr = 1;
SlotsPerDay = 15;
AvailabilitySlotsLenght = 15;
RoomNr = 1;
ProgrammNr = 1;
DegreeNr = 3;
RolesNr = 1;
CoursesNr = 8;
InstructorsProgramm = [{1}, {1}, {1}, {1}, {1}, {1}, {1}, {1}, {1}, {1}, {1}, {1}, {1}, {1}, {1}, {1}, {1}, {1}, {1}, {1}, {1}, {1}, {1}, {1}, {1}, {1}, {1}, {1}, {1}, {1}, {1}, {1}, {1}, {1}, {1}, {1}, {1}, {1}, {1}, {1}, {1}, {1}, {1}, {1}, {1}, {1}, {1}, {1}, {1}, {1}, {1}, {1}, {1}];
InstructorRolesPerProgramm = [|{2, 4, 6, 7, 9, 10, 14, 18, 20, 21, 25, 26, 29, 33, 34, 37, 38, 40, 41, 42, 44, 45, 47, 48, 49, 50, 51, 52}|];
InstructorsAvailability = [|0, |0, |0, |1, |1, |1, |1, |1, |1, |1, |0, |1, |0, |1, |1, |0, |0, |1, |0, |1, |1, |1, |0, |1, |0, |1, |1, |0, |0, |0, |1, |0, |0, |0, |0, |1, |1, |0, |1, |0, |0, |1, |0, |0, |1, |1, |1, |1, |1, |1, |0, |0, |0|];
StudentsProgramm = [1, 1, 1, 1, 1, 1, 1, 1, 1, 1];
StudentsDegree = [3, 2, 1, 2, 2, 2, 1, 1, 1, 1];
StudentsSupervisorId = [9, 25, 1, 24, 5, 4, 26, 45, 20, 44];
StudentsCourseIds = [{1, 4, 5, 6, 7}, {}, {1, 2, 3, 4, 7, 8}, {}, {}, {}, {1, 2, 3, 4, 5, 7}, {1, 3, 5, 6, 7, 8}, {1, 2, 3, 4, 5, 8}, {1, 2, 3, 4, 5, 8}];
StudentsAvailability = [|1, |1, |1, |0, |0, |1, |0, |0, |1, |1|];
TheoryticalMinCard = [0, 0, 0, 1, 1, 0, 0, 0, 0, 0];
CoursesInstructorIds = [{1, 2, 4, 6, 8, 9, 10, 11, 15, 16, 17, 18, 19, 21, 23, 24, 25, 26, 29, 30, 31, 32, 33, 34, 36, 37, 39, 43, 44, 46, 47, 50}, {1, 2, 4, 5, 6, 7, 9, 10, 14, 21, 22, 24, 26, 27, 30, 31, 32, 33, 34, 35, 36, 37, 38, 40, 41, 44, 46, 47, 48, 49, 51, 52, 53}, {4, 12, 13, 14, 15, 17, 25, 26, 28, 34, 38, 41, 49, 52, 53}, {5, 6, 7, 11, 14, 17, 18, 20, 22, 26, 29, 30, 35, 36, 39, 40, 42, 44, 45, 47, 48}, {1, 2, 3, 4, 5, 12, 13, 18, 20, 22, 23, 24, 28, 29, 30, 33, 34, 38, 41, 42, 48, 51}, {1, 5, 6, 7, 8, 10, 16, 17, 19, 22, 27, 28, 31, 33, 34, 38, 40, 43, 44, 46, 47, 48, 49, 51, 53}, {9, 14, 15, 16, 22, 30, 32, 34, 35, 39, 42, 44, 45, 53}, {1, 4, 6, 7, 8, 9, 14, 20, 21, 22, 25, 26, 29, 30, 31, 32, 34, 37, 40, 42, 49, 51, 53}];
RolesDemands = [20];
RolesContinuity = [];
ExamLen = [2, 1, 1, 1, 1, 1, 1, 1, 1, 1];
LunchTsMinLen = 0;
LunchStarts = [7..11];
SupervisorAvailable = 0;
OptimalLunchLenght = [0, 0];
OptimalStartTs = [1, 0];
OptimalFinishTs = [0, 15];
MinimizeRooms = 300;
RolesSoftContinuity = [|1|2|];
SameDegreeInRoom = 0;
Mergeability = 1;
